NAME /Users/henri/Research/solvers/instances/idol-instances/robust/collection/spp_dkp_Lefebvre_et_al_2026/shortest_path_6_4/uncertainty_sets/discrete_knapsack
ROWS
 N  OBJ
 L  primal_lower
COLUMNS
    MARKER    'MARKER'                 'INTORG'
    y[0,1]     OBJ        0
    y[0,1]     primal_lower -3.69
    y[0,2]     OBJ        0
    y[0,2]     primal_lower -2.99
    y[0,3]     OBJ        0
    y[0,3]     primal_lower -1.17
    y[0,4]     OBJ        0
    y[0,4]     primal_lower -3.57
    y[0,5]     OBJ        0
    y[0,5]     primal_lower -1.47
    y[1,0]     OBJ        0
    y[1,0]     primal_lower -4.41
    y[1,3]     OBJ        0
    y[1,3]     primal_lower -0.2
    y[1,4]     OBJ        0
    y[1,4]     primal_lower -2.08
    y[2,0]     OBJ        0
    y[2,0]     primal_lower -4.3
    y[2,3]     OBJ        0
    y[2,3]     primal_lower -2.14
    y[2,4]     OBJ        0
    y[2,4]     primal_lower -2.39
    y[2,5]     OBJ        0
    y[2,5]     primal_lower -0.4
    y[3,0]     OBJ        0
    y[3,0]     primal_lower -2.01
    y[3,1]     OBJ        0
    y[3,1]     primal_lower -3.51
    y[3,2]     OBJ        0
    y[3,2]     primal_lower -4.08
    y[3,4]     OBJ        0
    y[3,4]     primal_lower -1.52
    y[3,5]     OBJ        0
    y[3,5]     primal_lower -0.49
    y[4,0]     OBJ        0
    y[4,0]     primal_lower -3.78
    y[4,1]     OBJ        0
    y[4,1]     primal_lower -1.86
    y[4,2]     OBJ        0
    y[4,2]     primal_lower -2.96
    y[4,3]     OBJ        0
    y[4,3]     primal_lower -0.17
    y[5,0]     OBJ        0
    y[5,0]     primal_lower -1.41
    y[5,2]     OBJ        0
    y[5,2]     primal_lower -0.22
    y[5,3]     OBJ        0
    y[5,3]     primal_lower -1.75
    u[0,1]     OBJ        0
    u[0,1]     primal_lower 14
    u[0,2]     OBJ        0
    u[0,2]     primal_lower 72
    u[0,3]     OBJ        0
    u[0,3]     primal_lower 54
    u[0,4]     OBJ        0
    u[0,4]     primal_lower 85
    u[0,5]     OBJ        0
    u[0,5]     primal_lower 84
    u[1,0]     OBJ        0
    u[1,0]     primal_lower 58
    u[1,3]     OBJ        0
    u[1,3]     primal_lower 77
    u[1,4]     OBJ        0
    u[1,4]     primal_lower 22
    u[2,0]     OBJ        0
    u[2,0]     primal_lower 82
    u[2,3]     OBJ        0
    u[2,3]     primal_lower 96
    u[2,4]     OBJ        0
    u[2,4]     primal_lower 48
    u[2,5]     OBJ        0
    u[2,5]     primal_lower 75
    u[3,0]     OBJ        0
    u[3,0]     primal_lower 83
    u[3,1]     OBJ        0
    u[3,1]     primal_lower 12
    u[3,2]     OBJ        0
    u[3,2]     primal_lower 6
    u[3,4]     OBJ        0
    u[3,4]     primal_lower 90
    u[3,5]     OBJ        0
    u[3,5]     primal_lower 15
    u[4,0]     OBJ        0
    u[4,0]     primal_lower 61
    u[4,1]     OBJ        0
    u[4,1]     primal_lower 12
    u[4,2]     OBJ        0
    u[4,2]     primal_lower 57
    u[4,3]     OBJ        0
    u[4,3]     primal_lower 42
    u[5,0]     OBJ        0
    u[5,0]     primal_lower 65
    u[5,2]     OBJ        0
    u[5,2]     primal_lower 1
    u[5,3]     OBJ        0
    u[5,3]     primal_lower 37
    MARKER    'MARKER'                 'INTEND'
RHS
    RHS       primal_lower 113
BOUNDS
 LI BND       y[0,1]     0
 UI BND       y[0,1]     1
 LI BND       y[0,2]     0
 UI BND       y[0,2]     1
 LI BND       y[0,3]     0
 UI BND       y[0,3]     1
 LI BND       y[0,4]     0
 UI BND       y[0,4]     1
 LI BND       y[0,5]     0
 UI BND       y[0,5]     1
 LI BND       y[1,0]     0
 UI BND       y[1,0]     1
 LI BND       y[1,3]     0
 UI BND       y[1,3]     1
 LI BND       y[1,4]     0
 UI BND       y[1,4]     1
 LI BND       y[2,0]     0
 UI BND       y[2,0]     1
 LI BND       y[2,3]     0
 UI BND       y[2,3]     1
 LI BND       y[2,4]     0
 UI BND       y[2,4]     1
 LI BND       y[2,5]     0
 UI BND       y[2,5]     1
 LI BND       y[3,0]     0
 UI BND       y[3,0]     1
 LI BND       y[3,1]     0
 UI BND       y[3,1]     1
 LI BND       y[3,2]     0
 UI BND       y[3,2]     1
 LI BND       y[3,4]     0
 UI BND       y[3,4]     1
 LI BND       y[3,5]     0
 UI BND       y[3,5]     1
 LI BND       y[4,0]     0
 UI BND       y[4,0]     1
 LI BND       y[4,1]     0
 UI BND       y[4,1]     1
 LI BND       y[4,2]     0
 UI BND       y[4,2]     1
 LI BND       y[4,3]     0
 UI BND       y[4,3]     1
 LI BND       y[5,0]     0
 UI BND       y[5,0]     1
 LI BND       y[5,2]     0
 UI BND       y[5,2]     1
 LI BND       y[5,3]     0
 UI BND       y[5,3]     1
 LI BND       u[0,1]     0
 UI BND       u[0,1]     1
 LI BND       u[0,2]     0
 UI BND       u[0,2]     1
 LI BND       u[0,3]     0
 UI BND       u[0,3]     1
 LI BND       u[0,4]     0
 UI BND       u[0,4]     1
 LI BND       u[0,5]     0
 UI BND       u[0,5]     1
 LI BND       u[1,0]     0
 UI BND       u[1,0]     1
 LI BND       u[1,3]     0
 UI BND       u[1,3]     1
 LI BND       u[1,4]     0
 UI BND       u[1,4]     1
 LI BND       u[2,0]     0
 UI BND       u[2,0]     1
 LI BND       u[2,3]     0
 UI BND       u[2,3]     1
 LI BND       u[2,4]     0
 UI BND       u[2,4]     1
 LI BND       u[2,5]     0
 UI BND       u[2,5]     1
 LI BND       u[3,0]     0
 UI BND       u[3,0]     1
 LI BND       u[3,1]     0
 UI BND       u[3,1]     1
 LI BND       u[3,2]     0
 UI BND       u[3,2]     1
 LI BND       u[3,4]     0
 UI BND       u[3,4]     1
 LI BND       u[3,5]     0
 UI BND       u[3,5]     1
 LI BND       u[4,0]     0
 UI BND       u[4,0]     1
 LI BND       u[4,1]     0
 UI BND       u[4,1]     1
 LI BND       u[4,2]     0
 UI BND       u[4,2]     1
 LI BND       u[4,3]     0
 UI BND       u[4,3]     1
 LI BND       u[5,0]     0
 UI BND       u[5,0]     1
 LI BND       u[5,2]     0
 UI BND       u[5,2]     1
 LI BND       u[5,3]     0
 UI BND       u[5,3]     1
ENDATA
